(set-logic QF_LIA)
(declare-fun x0 () Int)
(declare-fun x1 () Int)
(declare-fun x2 () Int)
(declare-fun x3 () Int)
(declare-fun x4 () Int)
(declare-fun x5 () Int)
(declare-fun x6 () Int)
(declare-fun x7 () Int)
(declare-fun x8 () Int)
(declare-fun x9 () Int)
(declare-fun A1 () Bool)
(declare-fun A2 () Bool)
(declare-fun A3 () Bool)
(declare-fun A4 () Bool)
(declare-fun A5 () Bool)
(declare-fun A9 () Bool)
(assert (let ((.def_0 (* (- 1) x4))) (let ((.def_1 (< .def_0 1))) (let ((.def_2 (* (- 1) x7))) (let ((.def_3 (+ .def_0 .def_2))) (let ((.def_4 (< .def_3 (- 1)))) (let ((.def_5 (not .def_4))) (let ((.def_6 (or .def_5 .def_1))) (let ((.def_7 (not .def_6))) (let ((.def_8 (not A4))) (let ((.def_9 (and .def_8 A5))) (let ((.def_10 (or .def_9 .def_7))) (let ((.def_11 (* 1 x8))) (let ((.def_12 (< .def_11 1))) (let ((.def_13 (not .def_12))) (let ((.def_14 (* (- 1) x6))) (let ((.def_15 (* 1 x2))) (let ((.def_16 (+ .def_15 .def_14))) (let ((.def_17 (< .def_16 1))) (let ((.def_18 (not .def_17))) (let ((.def_19 (and .def_18 .def_13))) (let ((.def_20 (* (- 1) x5))) (let ((.def_21 (< .def_20 1))) (let ((.def_22 (not A1))) (let ((.def_23 (or .def_22 .def_21))) (let ((.def_24 (= .def_23 .def_19))) (let ((.def_25 (or .def_24 .def_10))) (let ((.def_26 (+ .def_20 .def_2))) (let ((.def_27 (< .def_26 (- 1)))) (let ((.def_28 (not .def_27))) (let ((.def_29 (* 1 x6))) (let ((.def_30 (* 1 x7))) (let ((.def_31 (+ .def_30 .def_29))) (let ((.def_32 (< .def_31 (- 1)))) (let ((.def_33 (not .def_32))) (let ((.def_34 (and .def_33 .def_28))) (let ((.def_35 (not .def_34))) (let ((.def_36 (* (- 1) x9))) (let ((.def_37 (+ .def_36 .def_30))) (let ((.def_38 (< .def_37 1))) (let ((.def_39 (or .def_38 .def_22))) (let ((.def_40 (= .def_39 .def_35))) (let ((.def_41 (not .def_40))) (let ((.def_42 (not A3))) (let ((.def_43 (not A2))) (let ((.def_44 (and .def_43 .def_42))) (let ((.def_45 (* (- 1) x1))) (let ((.def_46 (+ .def_45 .def_29))) (let ((.def_47 (< .def_46 1))) (let ((.def_48 (or .def_47 .def_8))) (let ((.def_49 (not .def_48))) (let ((.def_50 (and .def_49 .def_44))) (let ((.def_51 (not .def_50))) (let ((.def_52 (and .def_51 .def_41))) (let ((.def_53 (and .def_52 .def_25))) (let ((.def_54 (not .def_53))) (let ((.def_55 (* 1 x4))) (let ((.def_56 (+ .def_55 .def_14))) (let ((.def_57 (< .def_56 (- 1)))) (let ((.def_58 (and .def_57 A9))) (let ((.def_59 (not .def_58))) (let ((.def_60 (* 1 x3))) (let ((.def_61 (+ .def_60 .def_2))) (let ((.def_62 (< .def_61 (- 1)))) (let ((.def_63 (not .def_62))) (let ((.def_64 (< .def_15 1))) (let ((.def_65 (not .def_64))) (let ((.def_66 (or .def_65 .def_63))) (let ((.def_67 (not .def_66))) (let ((.def_68 (and .def_67 .def_59))) (let ((.def_69 (+ .def_30 .def_36))) (let ((.def_70 (< .def_69 (- 1)))) (let ((.def_71 (or .def_70 A4))) (let ((.def_72 (not .def_71))) (let ((.def_73 (* 1 x9))) (let ((.def_74 (* 1 x0))) (let ((.def_75 (+ .def_74 .def_73))) (let ((.def_76 (< .def_75 (- 1)))) (let ((.def_77 (not .def_76))) (let ((.def_78 (not A5))) (let ((.def_79 (and .def_78 .def_77))) (let ((.def_80 (not .def_79))) (let ((.def_81 (and .def_80 .def_72))) (let ((.def_82 (not .def_81))) (let ((.def_83 (and .def_82 .def_68))) (let ((.def_84 (and A2 .def_22))) (let ((.def_85 (not .def_84))) (let ((.def_86 (* (- 1) x2))) (let ((.def_87 (+ .def_86 .def_29))) (let ((.def_88 (< .def_87 1))) (let ((.def_89 (or .def_88 .def_42))) (let ((.def_90 (and .def_89 .def_85))) (let ((.def_91 (or .def_8 A4))) (let ((.def_92 (* 1 x5))) (let ((.def_93 (< .def_92 1))) (let ((.def_94 (or .def_93 A3))) (let ((.def_95 (= .def_94 .def_91))) (let ((.def_96 (not .def_95))) (let ((.def_97 (and .def_96 .def_90))) (let ((.def_98 (or .def_97 .def_83))) (let ((.def_99 (not .def_98))) (let ((.def_100 (and .def_99 .def_54))) (let ((.def_101 (not .def_100))) (let ((.def_102 (<= x9 1))) (let ((.def_103 (<= 0 x9))) (let ((.def_104 (<= x8 1))) (let ((.def_105 (<= 0 x8))) (let ((.def_106 (<= x7 1))) (let ((.def_107 (<= 0 x7))) (let ((.def_108 (<= x6 1))) (let ((.def_109 (<= 0 x6))) (let ((.def_110 (<= x5 1))) (let ((.def_111 (<= 0 x5))) (let ((.def_112 (<= x4 1))) (let ((.def_113 (<= 0 x4))) (let ((.def_114 (<= x3 1))) (let ((.def_115 (<= 0 x3))) (let ((.def_116 (<= x2 1))) (let ((.def_117 (<= 0 x2))) (let ((.def_118 (<= x1 1))) (let ((.def_119 (<= 0 x1))) (let ((.def_120 (<= x0 1))) (let ((.def_121 (<= 0 x0))) (let ((.def_122 (and .def_121 .def_120 .def_119 .def_118 .def_117 .def_116 .def_115 .def_114 .def_113 .def_112 .def_111 .def_110 .def_109 .def_108 .def_107 .def_106 .def_105 .def_104 .def_103 .def_102 .def_101))) .def_122))))))))))))))))))))))))))))))))))))))))))))))))))))))))))))))))))))))))))))))))))))))))))))))))))))))))))))))))))))))))))))
(check-sat)
